846153
0,36,79,67,98,35,37,75,49,87,82,14,15,81,57,60,66,26,1,63,4,2,34,96,41,7,88,84,52,90,43,54,71,92,62,12,73,69,31,59,30,61,48,9,55,17,68,74,5,40,76,29,95,20,19,8,32,56,46,94,72,24,77,50,78,28,39,93,25,16,11,18,42,23,58,89,70,33,45,27,10,22,97,53,64,51,21,83,91,38,13,85,80,6,65,3,44,86,47,0